<number of tasks>
20

<cycle time>
1000

<order strength>
0,5


<task times>
1 367
2 693
3 437
4 436
5 280
6 474
7 549
8 459
9 520
10 244
11 595
12 619
13 561
14 406
15 397
16 733
17 677
18 547
19 572
20 491

<precedence relations>
1,3
1,4
1,5
1,6
2,4
2,5
3,7
4,8
4,9
5,8
5,9
6,17
6,19
7,10
8,11
8,12
8,13
8,17
9,13
9,17
10,17
11,15
12,16
13,14
13,19
14,18
15,19
16,19
17,20

<end>
